num_teams = 10;
cost = [|0,26,25,8,10,13,39,37,40,7,
|24,0,21,34,25,15,45,28,48,45,
|26,37,0,23,12,27,16,12,25,45,
|42,34,5,0,14,25,44,12,47,50,
|9,35,44,49,0,17,37,25,1,44,
|50,21,36,22,22,0,33,28,15,27,
|48,46,27,49,33,13,0,33,4,2,
|27,34,10,13,40,6,3,0,42,31,
|47,10,18,24,49,23,18,6,0,19,
|46,38,34,42,23,37,3,18,25,0,
|];